rcpsp/heur_output_bi_constraints/Log=2/heurj90.txt
encoding rcpsp/j90.sm/j9017_3.sm nv: 362160 nc: 894208 enctime: 12.71
encoding rcpsp/j90.sm/j9017_3.sm nv: 79200 nc: 192703 enctime: 1.38
c File: j9017_3.smnaivebi2.wcnf
c optimal
c final solution cost: 76
c CPU time: 5.337429
s OPTIMUM FOUND

c File: j9017_3.smbi2.wcnf
c optimal
c final solution cost: 76
c CPU time: 0.903573
s OPTIMUM FOUND


rcpsp/heur_output_bi_constraints/Log=2/heurj90.txt
encoding rcpsp/j90.sm/j9017_4.sm nv: 352824 nc: 861435 enctime: 11.92
encoding rcpsp/j90.sm/j9017_4.sm nv: 87840 nc: 212007 enctime: 1.48
c File: j9017_4.smnaivebi2.wcnf
c optimal
c final solution cost: 74
c CPU time: 5.709038
s OPTIMUM FOUND

c File: j9017_4.smbi2.wcnf
c optimal
c final solution cost: 74
c CPU time: 1.255981
s OPTIMUM FOUND


rcpsp/heur_output_bi_constraints/Log=2/heurj90.txt
encoding rcpsp/j90.sm/j9017_5.sm nv: 315324 nc: 772202 enctime: 10.64
encoding rcpsp/j90.sm/j9017_5.sm nv: 69768 nc: 168364 enctime: 1.20
c File: j9017_5.smnaivebi2.wcnf
c optimal
c final solution cost: 88
c CPU time: 5.706512
s OPTIMUM FOUND

c File: j9017_5.smbi2.wcnf
c optimal
c final solution cost: 88
c CPU time: 0.479887
s OPTIMUM FOUND


rcpsp/heur_output_bi_constraints/Log=2/heurj90.txt
encoding rcpsp/j90.sm/j9017_6.sm nv: 364270 nc: 900618 enctime: 12.76
encoding rcpsp/j90.sm/j9017_6.sm nv: 83220 nc: 202998 enctime: 1.45
c File: j9017_6.smnaivebi2.wcnf
c optimal
c final solution cost: 88
c CPU time: 3.458921
s OPTIMUM FOUND

c File: j9017_6.smbi2.wcnf
c optimal
c final solution cost: 88
c CPU time: 0.373782
s OPTIMUM FOUND


rcpsp/heur_output_bi_constraints/Log=2/heurj90.txt
encoding rcpsp/j90.sm/j9017_7.sm nv: 367284 nc: 891272 enctime: 12.20
encoding rcpsp/j90.sm/j9017_7.sm nv: 71628 nc: 171144 enctime: 1.21
c File: j9017_7.smnaivebi2.wcnf
c optimal
c final solution cost: 66
c CPU time: 16.242899
s OPTIMUM FOUND

c File: j9017_7.smbi2.wcnf
c optimal
c final solution cost: 66
c CPU time: 0.796663
s OPTIMUM FOUND


rcpsp/heur_output_bi_constraints/Log=2/heurj90.txt
encoding rcpsp/j90.sm/j9017_8.sm nv: 338016 nc: 851915 enctime: 12.55
encoding rcpsp/j90.sm/j9017_8.sm nv: 79968 nc: 198731 enctime: 1.44
c File: j9017_8.smnaivebi2.wcnf
c optimal
c final solution cost: 90
c CPU time: 5.541769
s OPTIMUM FOUND

c File: j9017_8.smbi2.wcnf
c optimal
c final solution cost: 90
c CPU time: 0.978715
s OPTIMUM FOUND


rcpsp/heur_output_bi_constraints/Log=2/heurj90.txt
encoding rcpsp/j90.sm/j9017_9.sm nv: 293304 nc: 748178 enctime: 11.19
encoding rcpsp/j90.sm/j9017_9.sm nv: 70296 nc: 176674 enctime: 1.30
c File: j9017_9.smnaivebi2.wcnf
c optimal
c final solution cost: 81
c CPU time: 8.820509
s OPTIMUM FOUND

c File: j9017_9.smbi2.wcnf
c optimal
c final solution cost: 81
c CPU time: 1.676517
s OPTIMUM FOUND


rcpsp/heur_output_bi_constraints/Log=2/heurj90.txt
encoding rcpsp/j90.sm/j901_7.sm nv: 345744 nc: 851255 enctime: 11.42
encoding rcpsp/j90.sm/j901_7.sm nv: 67228 nc: 162679 enctime: 0.78
c File: j901_7.smnaivebi2.wcnf
c optimal
c final solution cost: 74
c CPU time: 6.550174
s OPTIMUM FOUND

c File: j901_7.smbi2.wcnf
c optimal
c final solution cost: 74
c CPU time: 1.521469
s OPTIMUM FOUND


rcpsp/heur_output_bi_constraints/Log=2/heurj90.txt
encoding rcpsp/j90.sm/j9018_10.sm nv: 446985 nc: 1054898 enctime: 13.66
encoding rcpsp/j90.sm/j9018_10.sm nv: 83979 nc: 195422 enctime: 1.36
c File: j9018_10.smnaivebi2.wcnf
c optimal
c final solution cost: 75
c CPU time: 3.629652
s OPTIMUM FOUND

c File: j9018_10.smbi2.wcnf
c optimal
c final solution cost: 75
c CPU time: 0.279882
s OPTIMUM FOUND


rcpsp/heur_output_bi_constraints/Log=2/heurj90.txt
encoding rcpsp/j90.sm/j9018_1.sm nv: 501270 nc: 1198545 enctime: 16.32
encoding rcpsp/j90.sm/j9018_1.sm nv: 99510 nc: 234753 enctime: 1.16
c File: j9018_1.smnaivebi2.wcnf
c optimal
c final solution cost: 65
c CPU time: 7.997926
s OPTIMUM FOUND

c File: j9018_1.smbi2.wcnf
c optimal
c final solution cost: 65
c CPU time: 1.392606
s OPTIMUM FOUND


rcpsp/heur_output_bi_constraints/Log=2/heurj90.txt
encoding rcpsp/j90.sm/j9018_2.sm nv: 445005 nc: 1048896 enctime: 13.66
encoding rcpsp/j90.sm/j9018_2.sm nv: 84506 nc: 196370 enctime: 1.37
c File: j9018_2.smnaivebi2.wcnf
c optimal
c final solution cost: 70
c CPU time: 5.332375
s OPTIMUM FOUND

c File: j9018_2.smbi2.wcnf
c optimal
c final solution cost: 70
c CPU time: 0.311992
s OPTIMUM FOUND


rcpsp/heur_output_bi_constraints/Log=2/heurj90.txt
encoding rcpsp/j90.sm/j9018_3.sm nv: 455088 nc: 1074774 enctime: 14.02
encoding rcpsp/j90.sm/j9018_3.sm nv: 65664 nc: 152027 enctime: 1.14
c File: j9018_3.smnaivebi2.wcnf
c optimal
c final solution cost: 66
c CPU time: 4.674641
s OPTIMUM FOUND

c File: j9018_3.smbi2.wcnf
c optimal
c final solution cost: 66
c CPU time: 0.259839
s OPTIMUM FOUND


rcpsp/heur_output_bi_constraints/Log=2/heurj90.txt
encoding rcpsp/j90.sm/j9018_4.sm nv: 538965 nc: 1266236 enctime: 16.43
encoding rcpsp/j90.sm/j9018_4.sm nv: 94395 nc: 218540 enctime: 1.55
c File: j9018_4.smnaivebi2.wcnf
c optimal
c final solution cost: 58
c CPU time: 5.745847
s OPTIMUM FOUND

c File: j9018_4.smbi2.wcnf
c optimal
c final solution cost: 58
c CPU time: 0.808654
s OPTIMUM FOUND


rcpsp/heur_output_bi_constraints/Log=2/heurj90.txt
encoding rcpsp/j90.sm/j9018_5.sm nv: 429936 nc: 1026573 enctime: 14.04
encoding rcpsp/j90.sm/j9018_5.sm nv: 88192 nc: 207677 enctime: 1.47
c File: j9018_5.smnaivebi2.wcnf
c optimal
c final solution cost: 78
c CPU time: 3.596919
s OPTIMUM FOUND

c File: j9018_5.smbi2.wcnf
c optimal
c final solution cost: 78
c CPU time: 0.316512
s OPTIMUM FOUND


rcpsp/heur_output_bi_constraints/Log=2/heurj90.txt
encoding rcpsp/j90.sm/j9018_6.sm nv: 471225 nc: 1116808 enctime: 14.71
encoding rcpsp/j90.sm/j9018_6.sm nv: 73200 nc: 170248 enctime: 1.23
c File: j9018_6.smnaivebi2.wcnf
c optimal
c final solution cost: 76
c CPU time: 4.909618
s OPTIMUM FOUND

c File: j9018_6.smbi2.wcnf
c optimal
c final solution cost: 76
c CPU time: 0.231397
s OPTIMUM FOUND


rcpsp/heur_output_bi_constraints/Log=2/heurj90.txt
encoding rcpsp/j90.sm/j9018_7.sm nv: 370648 nc: 857633 enctime: 10.70
encoding rcpsp/j90.sm/j9018_7.sm nv: 82176 nc: 188014 enctime: 1.29
c File: j9018_7.smnaivebi2.wcnf
c optimal
c final solution cost: 60
c CPU time: 2.769358
s OPTIMUM FOUND

c File: j9018_7.smbi2.wcnf
c optimal
c final solution cost: 60
c CPU time: 0.270153
s OPTIMUM FOUND


rcpsp/heur_output_bi_constraints/Log=2/heurj90.txt
encoding rcpsp/j90.sm/j9018_8.sm nv: 542270 nc: 1257617 enctime: 15.90
encoding rcpsp/j90.sm/j9018_8.sm nv: 98115 nc: 224483 enctime: 1.58
c File: j9018_8.smnaivebi2.wcnf
c optimal
c final solution cost: 81
c CPU time: 3.423997
s OPTIMUM FOUND

c File: j9018_8.smbi2.wcnf
c optimal
c final solution cost: 81
c CPU time: 0.307883
s OPTIMUM FOUND


rcpsp/heur_output_bi_constraints/Log=2/heurj90.txt
encoding rcpsp/j90.sm/j9018_9.sm nv: 493525 nc: 1121486 enctime: 13.65
encoding rcpsp/j90.sm/j9018_9.sm nv: 77925 nc: 174286 enctime: 1.24
c File: j9018_9.smnaivebi2.wcnf
c optimal
c final solution cost: 74
c CPU time: 3.455578
s OPTIMUM FOUND

c File: j9018_9.smbi2.wcnf
c optimal
c final solution cost: 74
c CPU time: 0.175974
s OPTIMUM FOUND


rcpsp/heur_output_bi_constraints/Log=2/heurj90.txt
encoding rcpsp/j90.sm/j901_8.sm nv: 380712 nc: 958704 enctime: 13.40
encoding rcpsp/j90.sm/j901_8.sm nv: 67512 nc: 166704 enctime: 1.20
c File: j901_8.smnaivebi2.wcnf
c optimal
c final solution cost: 72
c CPU time: 5.855222
s OPTIMUM FOUND

c File: j901_8.smbi2.wcnf
c optimal
c final solution cost: 72
c CPU time: 1.062324
s OPTIMUM FOUND


rcpsp/heur_output_bi_constraints/Log=2/heurj90.txt
encoding rcpsp/j90.sm/j9019_10.sm nv: 589920 nc: 1312697 enctime: 14.99
encoding rcpsp/j90.sm/j9019_10.sm nv: 88488 nc: 193961 enctime: 1.37
c File: j9019_10.smnaivebi2.wcnf
c optimal
c final solution cost: 63
c CPU time: 3.676392
s OPTIMUM FOUND

c File: j9019_10.smbi2.wcnf
c optimal
c final solution cost: 63
c CPU time: 0.247596
s OPTIMUM FOUND


rcpsp/heur_output_bi_constraints/Log=2/heurj90.txt
encoding rcpsp/j90.sm/j9019_1.sm nv: 529659 nc: 1219704 enctime: 15.40
encoding rcpsp/j90.sm/j9019_1.sm nv: 87399 nc: 198264 enctime: 0.95
c File: j9019_1.smnaivebi2.wcnf
c optimal
c final solution cost: 79
c CPU time: 3.169301
s OPTIMUM FOUND

c File: j9019_1.smbi2.wcnf
c optimal
c final solution cost: 79
c CPU time: 0.267519
s OPTIMUM FOUND


rcpsp/heur_output_bi_constraints/Log=2/heurj90.txt
encoding rcpsp/j90.sm/j9019_2.sm nv: 509220 nc: 1140282 enctime: 13.52
encoding rcpsp/j90.sm/j9019_2.sm nv: 89667 nc: 198088 enctime: 0.95
c File: j9019_2.smnaivebi2.wcnf
c optimal
c final solution cost: 68
c CPU time: 29.547038
s OPTIMUM FOUND

c File: j9019_2.smbi2.wcnf
c optimal
c final solution cost: 68
c CPU time: 0.506532
s OPTIMUM FOUND


rcpsp/heur_output_bi_constraints/Log=2/heurj90.txt
encoding rcpsp/j90.sm/j9019_3.sm nv: 566724 nc: 1282838 enctime: 15.47
encoding rcpsp/j90.sm/j9019_3.sm nv: 87626 nc: 195395 enctime: 1.39
c File: j9019_3.smnaivebi2.wcnf
c optimal
c final solution cost: 61
c CPU time: 3.342472
s OPTIMUM FOUND

c File: j9019_3.smbi2.wcnf
c optimal
c final solution cost: 61
c CPU time: 0.283157
s OPTIMUM FOUND


rcpsp/heur_output_bi_constraints/Log=2/heurj90.txt
encoding rcpsp/j90.sm/j9019_4.sm nv: 616512 nc: 1403688 enctime: 17.18
encoding rcpsp/j90.sm/j9019_4.sm nv: 100928 nc: 226664 enctime: 1.61
c File: j9019_4.smnaivebi2.wcnf
c optimal
c final solution cost: 62
c CPU time: 4.229169
s OPTIMUM FOUND

c File: j9019_4.smbi2.wcnf
c optimal
c final solution cost: 62
c CPU time: 0.323345
s OPTIMUM FOUND


rcpsp/heur_output_bi_constraints/Log=2/heurj90.txt
encoding rcpsp/j90.sm/j9019_5.sm nv: 445718 nc: 972830 enctime: 10.81
encoding rcpsp/j90.sm/j9019_5.sm nv: 60830 nc: 130670 enctime: 0.96
c File: j9019_5.smnaivebi2.wcnf
c optimal
c final solution cost: 49
c CPU time: 2.481415
s OPTIMUM FOUND

c File: j9019_5.smbi2.wcnf
c optimal
c final solution cost: 49
c CPU time: 0.170090
s OPTIMUM FOUND


rcpsp/heur_output_bi_constraints/Log=2/heurj90.txt
encoding rcpsp/j90.sm/j9019_6.sm nv: 513080 nc: 1195635 enctime: 15.43
encoding rcpsp/j90.sm/j9019_6.sm nv: 141400 nc: 326787 enctime: 2.27
c File: j9019_6.smnaivebi2.wcnf
c optimal
c final solution cost: 80
c CPU time: 3.359956
s OPTIMUM FOUND

c File: j9019_6.smbi2.wcnf
c optimal
c final solution cost: 80
c CPU time: 0.531698
s OPTIMUM FOUND


rcpsp/heur_output_bi_constraints/Log=2/heurj90.txt
encoding rcpsp/j90.sm/j9019_7.sm nv: 483345 nc: 1098896 enctime: 13.69
encoding rcpsp/j90.sm/j9019_7.sm nv: 67275 nc: 150176 enctime: 0.69
c File: j9019_7.smnaivebi2.wcnf
c optimal
c final solution cost: 56
c CPU time: 3.280984
s OPTIMUM FOUND

c File: j9019_7.smbi2.wcnf
c optimal
c final solution cost: 56
c CPU time: 0.218265
s OPTIMUM FOUND


rcpsp/heur_output_bi_constraints/Log=2/heurj90.txt
encoding rcpsp/j90.sm/j9019_8.sm nv: 521220 nc: 1207585 enctime: 15.76
encoding rcpsp/j90.sm/j9019_8.sm nv: 82782 nc: 188710 enctime: 0.89
c File: j9019_8.smnaivebi2.wcnf
c optimal
c final solution cost: 64
c CPU time: 5.085578
s OPTIMUM FOUND

c File: j9019_8.smbi2.wcnf
c optimal
c final solution cost: 64
c CPU time: 0.276076
s OPTIMUM FOUND


rcpsp/heur_output_bi_constraints/Log=2/heurj90.txt
encoding rcpsp/j90.sm/j9019_9.sm nv: 580482 nc: 1358044 enctime: 18.11
encoding rcpsp/j90.sm/j9019_9.sm nv: 98532 nc: 227194 enctime: 1.10
c File: j9019_9.smnaivebi2.wcnf
c optimal
c final solution cost: 70
c CPU time: 5.197273
s OPTIMUM FOUND

c File: j9019_9.smbi2.wcnf
c optimal
c final solution cost: 70
c CPU time: 0.307273
s OPTIMUM FOUND


rcpsp/heur_output_bi_constraints/Log=2/heurj90.txt
encoding rcpsp/j90.sm/j901_9.sm nv: 360714 nc: 853327 enctime: 10.88
encoding rcpsp/j90.sm/j901_9.sm nv: 57836 nc: 134141 enctime: 0.61
c File: j901_9.smnaivebi2.wcnf
c optimal
c final solution cost: 58
c CPU time: 12.675348
s OPTIMUM FOUND

c File: j901_9.smbi2.wcnf
c optimal
c final solution cost: 58
c CPU time: 1.756601
s OPTIMUM FOUND


rcpsp/heur_output_bi_constraints/Log=2/heurj90.txt
encoding rcpsp/j90.sm/j9020_10.sm nv: 494400 nc: 1155631 enctime: 15.21
encoding rcpsp/j90.sm/j9020_10.sm nv: 89280 nc: 205709 enctime: 1.47
c File: j9020_10.smnaivebi2.wcnf
c optimal
c final solution cost: 73
c CPU time: 3.124793
s OPTIMUM FOUND

c File: j9020_10.smbi2.wcnf
c optimal
c final solution cost: 73
c CPU time: 0.226949
s OPTIMUM FOUND


rcpsp/heur_output_bi_constraints/Log=2/heurj90.txt
encoding rcpsp/j90.sm/j9020_1.sm nv: 664224 nc: 1513671 enctime: 19.04
encoding rcpsp/j90.sm/j9020_1.sm nv: 106227 nc: 238641 enctime: 1.74
c File: j9020_1.smnaivebi2.wcnf
c optimal
c final solution cost: 83
c CPU time: 4.106543
s OPTIMUM FOUND

c File: j9020_1.smbi2.wcnf
c optimal
c final solution cost: 83
c CPU time: 0.304933
s OPTIMUM FOUND


rcpsp/heur_output_bi_constraints/Log=2/heurj90.txt
encoding rcpsp/j90.sm/j9020_2.sm nv: 572142 nc: 1294491 enctime: 16.17
encoding rcpsp/j90.sm/j9020_2.sm nv: 84508 nc: 188134 enctime: 0.89
c File: j9020_2.smnaivebi2.wcnf
c optimal
c final solution cost: 62
c CPU time: 3.623832
s OPTIMUM FOUND

c File: j9020_2.smbi2.wcnf
c optimal
c final solution cost: 62
c CPU time: 0.313659
s OPTIMUM FOUND


rcpsp/heur_output_bi_constraints/Log=2/heurj90.txt
encoding rcpsp/j90.sm/j9020_3.sm nv: 693384 nc: 1549528 enctime: 18.70
encoding rcpsp/j90.sm/j9020_3.sm nv: 96192 nc: 211657 enctime: 0.99
c File: j9020_3.smnaivebi2.wcnf
c optimal
c final solution cost: 61
c CPU time: 4.219953
s OPTIMUM FOUND

c File: j9020_3.smbi2.wcnf
c optimal
c final solution cost: 61
c CPU time: 0.293477
s OPTIMUM FOUND


rcpsp/heur_output_bi_constraints/Log=2/heurj90.txt
encoding rcpsp/j90.sm/j9020_4.sm nv: 613500 nc: 1380011 enctime: 16.62
encoding rcpsp/j90.sm/j9020_4.sm nv: 98160 nc: 217871 enctime: 1.56
c File: j9020_4.smnaivebi2.wcnf
c optimal
c final solution cost: 68
c CPU time: 6.044115
s OPTIMUM FOUND

c File: j9020_4.smbi2.wcnf
c optimal
c final solution cost: 68
c CPU time: 0.510007
s OPTIMUM FOUND


rcpsp/heur_output_bi_constraints/Log=2/heurj90.txt
encoding rcpsp/j90.sm/j9020_5.sm nv: 606900 nc: 1347905 enctime: 15.76
encoding rcpsp/j90.sm/j9020_5.sm nv: 103275 nc: 226500 enctime: 1.09
c File: j9020_5.smnaivebi2.wcnf
c optimal
c final solution cost: 76
c CPU time: 3.031368
s OPTIMUM FOUND

c File: j9020_5.smbi2.wcnf
c optimal
c final solution cost: 76
c CPU time: 0.233610
s OPTIMUM FOUND


rcpsp/heur_output_bi_constraints/Log=2/heurj90.txt
encoding rcpsp/j90.sm/j9020_6.sm nv: 635290 nc: 1419830 enctime: 16.93
encoding rcpsp/j90.sm/j9020_6.sm nv: 90576 nc: 199203 enctime: 1.45
c File: j9020_6.smnaivebi2.wcnf
c optimal
c final solution cost: 64
c CPU time: 3.488111
s OPTIMUM FOUND

c File: j9020_6.smbi2.wcnf
c optimal
c final solution cost: 64
c CPU time: 0.220748
s OPTIMUM FOUND


rcpsp/heur_output_bi_constraints/Log=2/heurj90.txt
encoding rcpsp/j90.sm/j9020_7.sm nv: 672438 nc: 1466607 enctime: 16.47
encoding rcpsp/j90.sm/j9020_7.sm nv: 114636 nc: 247263 enctime: 1.71
c File: j9020_7.smnaivebi2.wcnf
c optimal
c final solution cost: 71
c CPU time: 3.215666
s OPTIMUM FOUND

c File: j9020_7.smbi2.wcnf
c optimal
c final solution cost: 71
c CPU time: 0.262696
s OPTIMUM FOUND


rcpsp/heur_output_bi_constraints/Log=2/heurj90.txt
encoding rcpsp/j90.sm/j9020_8.sm nv: 652540 nc: 1493367 enctime: 19.16
encoding rcpsp/j90.sm/j9020_8.sm nv: 108560 nc: 244979 enctime: 1.16
c File: j9020_8.smnaivebi2.wcnf
c optimal
c final solution cost: 75
c CPU time: 4.299418
s OPTIMUM FOUND

c File: j9020_8.smbi2.wcnf
c optimal
c final solution cost: 75
c CPU time: 0.542614
s OPTIMUM FOUND


rcpsp/heur_output_bi_constraints/Log=2/heurj90.txt
encoding rcpsp/j90.sm/j9020_9.sm nv: 524025 nc: 1139193 enctime: 12.65
encoding rcpsp/j90.sm/j9020_9.sm nv: 92475 nc: 198743 enctime: 1.37
c File: j9020_9.smnaivebi2.wcnf
c optimal
c final solution cost: 57
c CPU time: 2.545164
s OPTIMUM FOUND

c File: j9020_9.smbi2.wcnf
c optimal
c final solution cost: 57
c CPU time: 0.252786
s OPTIMUM FOUND


